evaluation/v1.12.0/mas76/mas76-12.mps.sol
Running HiGHS 1.12.0 (git hash: n/a): Copyright (c) 2025 HiGHS under MIT licence terms
Set option solver to "simplex"
Set option parallel to "off"
Set option time_limit to 1200
Set option user_bound_scale to -12
Set option log_file to "HiGHS.log"
Set option mip_rel_gap to 0
MIP mas76 has 12 rows; 151 cols; 1640 nonzeros; 150 integer variables (150 binary)
Assessing costs and bounds after applying user_bound_scale option value of -12
Coefficient ranges:
  Matrix  [2e-04, 2e+00]
  Cost    [2e-09, 1e+00]
  Bound   [1e+00, 2e+08]
  RHS     [4e-03, 4e+01]
WARNING: User-scaled problem has some excessively small costs
WARNING: User-scaled problem has some excessively large column bounds
WARNING:    Consider setting the user_bound_scale option to -20
Presolving model
12 rows, 150 cols, 1639 nonzeros  0s
12 rows, 148 cols, 1615 nonzeros  0s
Presolve reductions: rows 12(-0); columns 148(-3); nonzeros 1615(-25) 

Solving MIP model with:
   12 rows
   148 cols (145 binary, 2 integer, 0 implied int., 1 continuous, 0 domain fixed)
   1615 nonzeros

Src: B => Branching; C => Central rounding; F => Feasibility pump; H => Heuristic;
     I => Shifting; J => Feasibility jump; L => Sub-MIP; P => Empty MIP; R => Randomized rounding;
     S => Solve LP; T => Evaluate node; U => Unbounded; X => User solution; Y => HiGHS solution;
     Z => ZI Round; l => Trivial lower; p => Trivial point; u => Trivial upper; z => Trivial zero

        Nodes      |    B&B Tree     |            Objective Bounds              |  Dynamic Constraints |       Work      
Src  Proc. InQueue |  Leaves   Expl. | BestBound       BestSol              Gap |   Cuts   InLp Confl. | LpIters     Time

 J       0       0         0   0.00%   -inf            29.76794781        Large        0      0      0         0     0.0s
 R       0       0         0   0.00%   9.495581943     10.76391303       11.78%        0      0      0        28     0.0s
 L       0       0         0   0.00%   9.528109814     9.766858921        2.44%     1065     24     10       146     0.3s
 L       0       0         0   0.00%   9.528854211     9.766858921        2.44%     1121     24     10       717     0.4s

53.7% inactive integer columns, restarting
Model after restart has 12 rows, 69 cols (68 bin., 0 int., 0 impl., 1 cont., 0 dom.fix.), and 676 nonzeros

         0       0         0   0.00%   9.528854211     9.766858921        2.44%       15      0      0      1269     0.4s
         0       0         0   0.00%   9.528854211     9.766858921        2.44%       15     15      4      1292     0.4s

Restarting search from the root node
Model after restart has 12 rows, 68 cols (67 bin., 0 int., 0 impl., 1 cont., 0 dom.fix.), and 664 nonzeros

      1709       0         0   0.00%   9.535712613     9.766858921        2.37%       15      0      0     19399     1.7s
      1709       0         0   0.00%   9.535712613     9.766858921        2.37%       15     10      2     19421     1.7s
 L    1709       0         0   0.00%   9.542562037     9.766858921        2.30%     1787     36      2     19641     2.0s
 L    1709       0         0   0.00%   9.542562037     9.766858921        2.30%     1787     36      2     20463     2.1s

Restarting search from the root node
Model after restart has 12 rows, 65 cols (64 bin., 0 int., 0 impl., 1 cont., 0 dom.fix.), and 628 nonzeros

      5140       0         0   0.00%   9.547583413     9.766858921        2.25%       15      0      0     42917     3.8s
      5140       0         0   0.00%   9.547583413     9.766858921        2.25%       15      2      4     42922     3.8s
 L    5140       0         0   0.00%   9.547583413     9.766858921        2.25%     1947     34      4     43157     4.1s
     14972     765      4500  20.40%   9.558405311     9.766858921        2.13%     1728      6   9889    104041     9.1s
     29426    1487     11331  30.24%   9.570305111     9.766858921        2.01%     1477     17   9643    181644    14.1s
 L   38658    1863     15736  33.65%   9.574525755     9.766858921        1.97%     1458     13   9983    231588    17.5s
 L   44952    2124     18738  37.35%   9.580188543     9.766858921        1.91%     1616      9   9691    267004    19.8s
     55238    2466     23685  41.56%   9.583907499     9.766858921        1.87%     1614     12   9954    330263    24.8s
     67017    2846     29358  46.55%   9.584881889     9.766858921        1.86%     1593     12   9911    398992    29.8s
 L   67417    2853     29554  46.94%   9.584961507     9.766858921        1.86%     1517      6   9689    400999    30.1s

        Nodes      |    B&B Tree     |            Objective Bounds              |  Dynamic Constraints |       Work      
Src  Proc. InQueue |  Leaves   Expl. | BestBound       BestSol              Gap |   Cuts   InLp Confl. | LpIters     Time

 L   79278    3251     35257  51.55%   9.588976275     9.766857924        1.82%     1503     13   9906    469453    35.3s
     92671    3674     41702  55.23%   9.591385874     9.766857924        1.80%     1480     12   9718    547110    40.3s
    103841    3952     47121  59.00%   9.59402563      9.766857924        1.77%     1533     12   9667    613264    45.3s
    116026    4251     53042  63.25%   9.596584236     9.766857924        1.74%     1407      7   9940    683610    50.3s
    126997    4454     58403  66.00%   9.601145592     9.766857924        1.70%     1508     15   9662    750832    55.3s
    137140    4562     63397  68.69%   9.6045535       9.766857924        1.66%     1316     12   9842    812682    60.3s
    148198    4679     68842  72.35%   9.60733954      9.766857924        1.63%     1591     15   9862    877576    65.3s
    159573    4783     74456  75.70%   9.61111878      9.766857924        1.59%     1389      9   9790    944753    70.4s
    170448    4893     79820  77.83%   9.613423261     9.766857924        1.57%     1425     12   9794     1008k    75.4s
    180021    5013     84529  80.01%   9.614950818     9.766857924        1.56%     1376     13   9808     1067k    80.4s
    193005    5145     90932  82.91%   9.618526189     9.766857924        1.52%     1579     13   9929     1139k    85.4s
    204671    5188     96720  84.91%   9.622966994     9.766857924        1.47%     1443     12   9778     1206k    90.4s
    215527    5201    102116  86.72%   9.626218412     9.766857924        1.44%     1271     14   9985     1269k    95.4s
    226762    5192    107710  88.94%   9.631019201     9.766857924        1.39%     1242     11   9726     1336k   100.9s
    238468    5077    113594  90.99%   9.635424645     9.766857924        1.35%     1437      4   9768     1401k   105.9s
    248910    4997    118830  92.23%   9.638485405     9.766857924        1.31%     1315      6   9827     1461k   110.9s
    259161    4842    124015  94.23%   9.644105974     9.766857924        1.26%     1302      8  10000     1522k   115.9s
    268214    4596    128647  95.12%   9.650012542     9.766857924        1.20%     1436      8   9869     1579k   120.9s
    276780    4291    133062  96.59%   9.656412559     9.766857924        1.13%     1367     11   9436     1633k   125.9s
    283769    3908    136734  97.64%   9.665970295     9.766857924        1.03%     1313     10   8562     1682k   130.9s

        Nodes      |    B&B Tree     |            Objective Bounds              |  Dynamic Constraints |       Work      
Src  Proc. InQueue |  Leaves   Expl. | BestBound       BestSol              Gap |   Cuts   InLp Confl. | LpIters     Time

    290784    3214    140580  98.38%   9.682349673     9.766857924        0.87%     1204      6   3666     1731k   135.9s
    295149    2336    143198  98.94%   9.698747689     9.766857924        0.70%     1202     11   2953     1771k   140.9s
    299522       0    146549 100.00%   9.766857924     9.766857924        0.00%     1236      7    979     1816k   145.8s

Solving report
  Model             mas76
  Status            Optimal
  Primal bound      9.76685792383
  Dual bound        9.76685792383
  Gap               0%
  P-D integral      2.28222532909
  Solution status   feasible
                    9.76685792383 (objective)
                    0 (bound viol.)
                    0 (int. viol.)
                    0 (row viol.)
  Timing            145.81
  Max sub-MIP depth 4
  Nodes             299522
  Repair LPs        0
  LP iterations     1816193
                    7571 (strong br.)
                    115427 (separation)
                    92724 (heuristics)
Model name          : mas76
Model status        : Optimal
Simplex   iterations: 1816193
IPM       iterations: -1
Crossover iterations: -1
PDLP      iterations: -1
QP ASM    iterations: -1
Objective value     :  9.7668579238e+00
HiGHS run time      :        145.82
WARNING: Solution optimality conditions: After removing user scaling
    max             0                                  integrality violations     (tolerance = 1e-06)
num/max      1 /  0.00409 (relative      0 /  2.6e-08) primal infeasibilities     (tolerance = 1e-06)
After solving the user-scaled model, the unscaled solution has objective value 40005.050056
WARNING: User scaled problem solved to optimality, but unscaled solution does not satisfy feasibilty and optimality tolerances
